# Data file generated for climber
param wind_disturbance :                    1                   2                   3                   4                   5                   6                   7                   8                   9                  10                  11                  12                  13                  14                  15                  16                  17                  18                  19                  20                  21                  22                  23                  24                  25                  26                  27                  28                  29                  30                  31                  32                  33                  34                  35                  36                  37                  38                  39                  40                  41                  42                  43                  44                  45                  46                  47                  48                  49                  50	:=
	   1    0.00000000000000    0.00000000000000    0.00000000000000    0.00000000000000    0.00000000000000    0.00000000000000    0.00000000000000    0.00000000000000    0.00000000000000    0.00000000000000    0.00000000000000    0.00000000000000    0.00000000000000    0.00000000000000    0.00000000000000    0.00000000000000    0.00000000000000    0.00000000000000    0.00000000000000    0.00000000000000    0.00000000000000    0.00000000000000    0.00000000000000    0.00000000000000    0.00000000000000    0.00000000000000    0.00000000000000    0.00000000000000    0.00000000000000    0.00000000000000    0.00000000000000    0.00000000000000    0.00000000000000    0.00000000000000    0.00000000000000    0.00000000000000    0.00000000000000    0.00000000000000    0.00000000000000    0.00000000000000    0.00000000000000    0.00000000000000    0.00000000000000    0.00000000000000    0.00000000000000    0.00000000000000    0.00000000000000    0.00000000000000    0.00000000000000    0.00000000000000
	   2    0.00000000000000    0.00000000000000    0.00000000000000    0.00000000000000    0.00000000000000    0.00000000000000    0.00000000000000    0.00000000000000    0.00000000000000    0.00000000000000    0.00000000000000    0.00000000000000    0.00000000000000    0.00000000000000    0.00000000000000    0.00000000000000    0.00000000000000    0.00000000000000    0.00000000000000    0.00000000000000    0.00000000000000    0.00000000000000    0.00000000000000    0.00000000000000    0.00000000000000    0.00000000000000    0.00000000000000    0.00000000000000    0.00000000000000    0.00000000000000    0.00000000000000    0.00000000000000    0.00000000000000    0.00000000000000    0.00000000000000    0.00000000000000    0.00000000000000    0.00000000000000    0.00000000000000    0.00000000000000    0.00000000000000    0.00000000000000    0.00000000000000    0.00000000000000    0.00000000000000    0.00000000000000    0.00000000000000    0.00000000000000    0.00000000000000    0.00000000000000	;
param epsilon :=    0.001000000000000;
param n_vel_cst := 6;
param n_acc_cst := 6;
param cos_vel :=    1    0.500000000000000,   2   -0.500000000000000,   3   -1.000000000000000,   4   -0.500000000000000,   5    0.500000000000000,   6    1.000000000000000;
param sin_vel :=    1    0.866025403784439,   2    0.866025403784439,   3    0.000000000000000,   4   -0.866025403784438,   5   -0.866025403784439,   6   -0.000000000000000;
param cos_acc :=    1    0.500000000000000,   2   -0.500000000000000,   3   -1.000000000000000,   4   -0.500000000000000,   5    0.500000000000000,   6    1.000000000000000;
param sin_acc :=    1    0.866025403784439,   2    0.866025403784439,   3    0.000000000000000,   4   -0.866025403784438,   5   -0.866025403784439,   6   -0.000000000000000;
param cos_vmax :=    0.866025403784439;
param cos_amax :=    0.866025403784439;
param obs_centroid :                    1                   2	:=
	   1    4.00000000000000    4.00000000000000	;
param obs_radius :=    1    1.000000000000000;
param n_obs := 1;
param n_obs_cst := 4;
param cos_obs :=    1    0.000000000000000,   2   -1.000000000000000,   3   -0.000000000000000,   4    1.000000000000000;
param sin_obs :=    1    1.000000000000000,   2    0.000000000000000,   3   -1.000000000000000,   4   -0.000000000000000;
param acc_max :=    1.000000000000000;
param vel_max :=    2.000000000000000;
param vel_min :=    1.000000000000000;
param n_ts := 50;
param dt :=    0.500000000000000;
param pos_init :=    1    0.000000000000000,   2    0.000000000000000;
param vel_init :=    1    1.000000000000000,   2    0.000000000000000;
param pos_final :=    1    8.000000000000000,   2    8.000000000000000;
param vel_final :=    1    0.000000000000000,   2    0.000000000000000;
param pos_cst :=    1   -2.000000000000000,   2   10.000000000000000,   3   -2.000000000000000,   4   10.000000000000000;
